p cnf 484 1
484 0
w 1 0.556649
w 2 1 0.0834999
w 2 -1 0.554309
w 3 2 1
w 3 -2 0
w 4 3 1
w 4 -3 0
w 5 4 1
w 5 -4 0
w 6 5 1
w 6 -5 0
w 7 6 0
w 7 -6 1
w 8 7 1
w 8 -7 0
w 9 8 0
w 9 -8 1
w 10 9 1
w 10 -9 0
w 11 10 1
w 11 -10 0
w 12 11 0
w 12 -11 1
w 13 12 1
w 13 -12 0
w 14 13 1
w 14 -13 0
w 15 14 0
w 15 -14 1
w 16 15 0.247029
w 16 -15 0.51304
w 17 16 0.801338
w 17 -16 0.519878
w 18 17 1
w 18 -17 0
w 19 18 0
w 19 -18 1
w 20 19 1
w 20 -19 0
w 21 20 0.147663
w 21 -20 0.203074
w 22 21 1
w 22 -21 0
w 23 1 1
w 23 -1 0
w 24 23 2 1
w 24 23 -2 1
w 24 -23 2 0
w 24 -23 -2 1
w 25 24 3 0.0764601
w 25 24 -3 0.798389
w 25 -24 3 0.962521
w 25 -24 -3 0.662452
w 26 25 4 0
w 26 25 -4 1
w 26 -25 4 1
w 26 -25 -4 1
w 27 26 5 1
w 27 26 -5 1
w 27 -26 5 1
w 27 -26 -5 0
w 28 27 6 0.59277
w 28 27 -6 0.290413
w 28 -27 6 0.799621
w 28 -27 -6 0.567188
w 29 28 7 1
w 29 28 -7 0
w 29 -28 7 0
w 29 -28 -7 1
w 30 29 8 1
w 30 29 -8 0
w 30 -29 8 1
w 30 -29 -8 1
w 31 30 9 0
w 31 30 -9 1
w 31 -30 9 1
w 31 -30 -9 0
w 32 31 10 1
w 32 31 -10 0
w 32 -31 10 1
w 32 -31 -10 0
w 33 32 11 0.422695
w 33 32 -11 0.76094
w 33 -32 11 0.610905
w 33 -32 -11 0.396185
w 34 33 12 0
w 34 33 -12 0
w 34 -33 12 0
w 34 -33 -12 1
w 35 34 13 1
w 35 34 -13 0
w 35 -34 13 1
w 35 -34 -13 1
w 36 35 14 0.673973
w 36 35 -14 0.144343
w 36 -35 14 0.467721
w 36 -35 -14 0.172435
w 37 36 15 0
w 37 36 -15 0
w 37 -36 15 0
w 37 -36 -15 1
w 38 37 16 0.637197
w 38 37 -16 0.155807
w 38 -37 16 0.723806
w 38 -37 -16 0.503128
w 39 38 17 1
w 39 38 -17 1
w 39 -38 17 0
w 39 -38 -17 1
w 40 39 18 0
w 40 39 -18 1
w 40 -39 18 0
w 40 -39 -18 0
w 41 40 19 0
w 41 40 -19 1
w 41 -40 19 1
w 41 -40 -19 1
w 42 41 20 0
w 42 41 -20 0
w 42 -41 20 1
w 42 -41 -20 0
w 43 42 21 0
w 43 42 -21 1
w 43 -42 21 1
w 43 -42 -21 0
w 44 43 22 1
w 44 43 -22 0
w 44 -43 22 1
w 44 -43 -22 1
w 45 23 1
w 45 -23 0
w 46 45 24 1
w 46 45 -24 0
w 46 -45 24 0
w 46 -45 -24 1
w 47 46 25 0
w 47 46 -25 1
w 47 -46 25 1
w 47 -46 -25 0
w 48 47 26 0
w 48 47 -26 0
w 48 -47 26 1
w 48 -47 -26 1
w 49 48 27 0
w 49 48 -27 1
w 49 -48 27 1
w 49 -48 -27 1
w 50 49 28 0
w 50 49 -28 1
w 50 -49 28 1
w 50 -49 -28 0
w 51 50 29 0.82981
w 51 50 -29 0.754662
w 51 -50 29 0.663259
w 51 -50 -29 0.488066
w 52 51 30 0.279289
w 52 51 -30 0.286871
w 52 -51 30 0.232699
w 52 -51 -30 0.217326
w 53 52 31 0.476581
w 53 52 -31 0.466327
w 53 -52 31 0.0134818
w 53 -52 -31 0.874651
w 54 53 32 1
w 54 53 -32 1
w 54 -53 32 0
w 54 -53 -32 1
w 55 54 33 0.807835
w 55 54 -33 0.712081
w 55 -54 33 0.902823
w 55 -54 -33 0.763539
w 56 55 34 0.331147
w 56 55 -34 0.524896
w 56 -55 34 0.73415
w 56 -55 -34 0.88231
w 57 56 35 0.707203
w 57 56 -35 0.71212
w 57 -56 35 0.675664
w 57 -56 -35 0.370462
w 58 57 36 0
w 58 57 -36 1
w 58 -57 36 1
w 58 -57 -36 0
w 59 58 37 0.317518
w 59 58 -37 0.214835
w 59 -58 37 0.333404
w 59 -58 -37 0.330999
w 60 59 38 1
w 60 59 -38 0
w 60 -59 38 0
w 60 -59 -38 1
w 61 60 39 1
w 61 60 -39 0
w 61 -60 39 0
w 61 -60 -39 0
w 62 61 40 1
w 62 61 -40 1
w 62 -61 40 0
w 62 -61 -40 0
w 63 62 41 0.071386
w 63 62 -41 0.288011
w 63 -62 41 0.590142
w 63 -62 -41 0.74705
w 64 63 42 0
w 64 63 -42 0
w 64 -63 42 1
w 64 -63 -42 1
w 65 64 43 0.175302
w 65 64 -43 0.594902
w 65 -64 43 0.205695
w 65 -64 -43 0.508706
w 66 65 44 0.295181
w 66 65 -44 0.424543
w 66 -65 44 0.425559
w 66 -65 -44 0.127386
w 67 45 1
w 67 -45 0
w 68 67 46 0.340606
w 68 67 -46 0.510442
w 68 -67 46 0.553692
w 68 -67 -46 0.966094
w 69 68 47 1
w 69 68 -47 0
w 69 -68 47 1
w 69 -68 -47 1
w 70 69 48 1
w 70 69 -48 1
w 70 -69 48 0
w 70 -69 -48 1
w 71 70 49 0.187518
w 71 70 -49 0.192615
w 71 -70 49 0.085278
w 71 -70 -49 0.178378
w 72 71 50 1
w 72 71 -50 1
w 72 -71 50 0
w 72 -71 -50 0
w 73 72 51 0
w 73 72 -51 1
w 73 -72 51 1
w 73 -72 -51 1
w 74 73 52 0
w 74 73 -52 0
w 74 -73 52 1
w 74 -73 -52 0
w 75 74 53 0
w 75 74 -53 0
w 75 -74 53 1
w 75 -74 -53 1
w 76 75 54 1
w 76 75 -54 1
w 76 -75 54 1
w 76 -75 -54 0
w 77 76 55 1
w 77 76 -55 1
w 77 -76 55 1
w 77 -76 -55 0
w 78 77 56 0
w 78 77 -56 0
w 78 -77 56 1
w 78 -77 -56 0
w 79 78 57 0.297681
w 79 78 -57 0.454927
w 79 -78 57 0.561641
w 79 -78 -57 0.0775045
w 80 79 58 0
w 80 79 -58 0
w 80 -79 58 0
w 80 -79 -58 1
w 81 80 59 1
w 81 80 -59 0
w 81 -80 59 0
w 81 -80 -59 0
w 82 81 60 0
w 82 81 -60 1
w 82 -81 60 0
w 82 -81 -60 1
w 83 82 61 1
w 83 82 -61 1
w 83 -82 61 1
w 83 -82 -61 0
w 84 83 62 0
w 84 83 -62 1
w 84 -83 62 1
w 84 -83 -62 1
w 85 84 63 0
w 85 84 -63 1
w 85 -84 63 1
w 85 -84 -63 0
w 86 85 64 0
w 86 85 -64 0
w 86 -85 64 1
w 86 -85 -64 0
w 87 86 65 1
w 87 86 -65 0
w 87 -86 65 0
w 87 -86 -65 0
w 88 87 66 1
w 88 87 -66 1
w 88 -87 66 0
w 88 -87 -66 0
w 89 67 1
w 89 -67 0
w 90 89 68 0
w 90 89 -68 1
w 90 -89 68 1
w 90 -89 -68 0
w 91 90 69 0.354194
w 91 90 -69 0.155961
w 91 -90 69 0.958575
w 91 -90 -69 0.594006
w 92 91 70 0.61863
w 92 91 -70 0.39546
w 92 -91 70 0.459774
w 92 -91 -70 0.377214
w 93 92 71 1
w 93 92 -71 0
w 93 -92 71 0
w 93 -92 -71 0
w 94 93 72 0
w 94 93 -72 0
w 94 -93 72 1
w 94 -93 -72 1
w 95 94 73 1
w 95 94 -73 1
w 95 -94 73 0
w 95 -94 -73 0
w 96 95 74 1
w 96 95 -74 1
w 96 -95 74 0
w 96 -95 -74 0
w 97 96 75 0
w 97 96 -75 1
w 97 -96 75 1
w 97 -96 -75 0
w 98 97 76 1
w 98 97 -76 0
w 98 -97 76 1
w 98 -97 -76 0
w 99 98 77 1
w 99 98 -77 0
w 99 -98 77 1
w 99 -98 -77 1
w 100 99 78 0.712396
w 100 99 -78 0.50292
w 100 -99 78 0.147283
w 100 -99 -78 0.863275
w 101 100 79 0.86803
w 101 100 -79 0.889524
w 101 -100 79 0.272265
w 101 -100 -79 0.3317
w 102 101 80 0
w 102 101 -80 1
w 102 -101 80 1
w 102 -101 -80 1
w 103 102 81 0.412865
w 103 102 -81 0.196616
w 103 -102 81 0.685905
w 103 -102 -81 0.577806
w 104 103 82 0.321713
w 104 103 -82 0.361377
w 104 -103 82 0.075211
w 104 -103 -82 0.417295
w 105 104 83 0
w 105 104 -83 1
w 105 -104 83 1
w 105 -104 -83 1
w 106 105 84 0.783712
w 106 105 -84 0.780883
w 106 -105 84 0.973887
w 106 -105 -84 0.646987
w 107 106 85 1
w 107 106 -85 0
w 107 -106 85 0
w 107 -106 -85 0
w 108 107 86 1
w 108 107 -86 1
w 108 -107 86 0
w 108 -107 -86 1
w 109 108 87 0
w 109 108 -87 0
w 109 -108 87 1
w 109 -108 -87 0
w 110 109 88 0
w 110 109 -88 0
w 110 -109 88 0
w 110 -109 -88 1
w 111 89 0
w 111 -89 1
w 112 111 90 0.75667
w 112 111 -90 0.632892
w 112 -111 90 0.8152
w 112 -111 -90 0.540382
w 113 112 91 0
w 113 112 -91 1
w 113 -112 91 0
w 113 -112 -91 0
w 114 113 92 1
w 114 113 -92 0
w 114 -113 92 1
w 114 -113 -92 0
w 115 114 93 0
w 115 114 -93 1
w 115 -114 93 1
w 115 -114 -93 1
w 116 115 94 0
w 116 115 -94 0
w 116 -115 94 1
w 116 -115 -94 1
w 117 116 95 1
w 117 116 -95 1
w 117 -116 95 0
w 117 -116 -95 0
w 118 117 96 1
w 118 117 -96 1
w 118 -117 96 1
w 118 -117 -96 0
w 119 118 97 0
w 119 118 -97 0
w 119 -118 97 0
w 119 -118 -97 1
w 120 119 98 0.338562
w 120 119 -98 0.840732
w 120 -119 98 0.374878
w 120 -119 -98 0.572485
w 121 120 99 0
w 121 120 -99 0
w 121 -120 99 0
w 121 -120 -99 1
w 122 121 100 0
w 122 121 -100 0
w 122 -121 100 0
w 122 -121 -100 1
w 123 122 101 0.361211
w 123 122 -101 0.272294
w 123 -122 101 0.985254
w 123 -122 -101 0.404919
w 124 123 102 1
w 124 123 -102 0
w 124 -123 102 1
w 124 -123 -102 0
w 125 124 103 1
w 125 124 -103 1
w 125 -124 103 1
w 125 -124 -103 0
w 126 125 104 0
w 126 125 -104 1
w 126 -125 104 1
w 126 -125 -104 0
w 127 126 105 1
w 127 126 -105 0
w 127 -126 105 0
w 127 -126 -105 1
w 128 127 106 1
w 128 127 -106 0
w 128 -127 106 0
w 128 -127 -106 1
w 129 128 107 0
w 129 128 -107 1
w 129 -128 107 0
w 129 -128 -107 0
w 130 129 108 1
w 130 129 -108 1
w 130 -129 108 1
w 130 -129 -108 0
w 131 130 109 0
w 131 130 -109 0
w 131 -130 109 1
w 131 -130 -109 1
w 132 131 110 0
w 132 131 -110 0
w 132 -131 110 1
w 132 -131 -110 0
w 133 111 1
w 133 -111 0
w 134 133 112 0
w 134 133 -112 1
w 134 -133 112 1
w 134 -133 -112 1
w 135 134 113 0
w 135 134 -113 0
w 135 -134 113 1
w 135 -134 -113 0
w 136 135 114 0.529498
w 136 135 -114 0.665921
w 136 -135 114 0.419167
w 136 -135 -114 0.0390915
w 137 136 115 0
w 137 136 -115 1
w 137 -136 115 0
w 137 -136 -115 1
w 138 137 116 1
w 138 137 -116 0
w 138 -137 116 0
w 138 -137 -116 1
w 139 138 117 0.44878
w 139 138 -117 0.869766
w 139 -138 117 0.116528
w 139 -138 -117 0.313494
w 140 139 118 0
w 140 139 -118 0
w 140 -139 118 1
w 140 -139 -118 1
w 141 140 119 0
w 141 140 -119 1
w 141 -140 119 0
w 141 -140 -119 1
w 142 141 120 0.813683
w 142 141 -120 0.422093
w 142 -141 120 0.429657
w 142 -141 -120 0.23285
w 143 142 121 1
w 143 142 -121 0
w 143 -142 121 0
w 143 -142 -121 1
w 144 143 122 0
w 144 143 -122 1
w 144 -143 122 1
w 144 -143 -122 0
w 145 144 123 1
w 145 144 -123 0
w 145 -144 123 0
w 145 -144 -123 0
w 146 145 124 0
w 146 145 -124 1
w 146 -145 124 1
w 146 -145 -124 1
w 147 146 125 0
w 147 146 -125 1
w 147 -146 125 0
w 147 -146 -125 0
w 148 147 126 1
w 148 147 -126 1
w 148 -147 126 0
w 148 -147 -126 1
w 149 148 127 1
w 149 148 -127 0
w 149 -148 127 0
w 149 -148 -127 0
w 150 149 128 1
w 150 149 -128 0
w 150 -149 128 0
w 150 -149 -128 0
w 151 150 129 1
w 151 150 -129 1
w 151 -150 129 0
w 151 -150 -129 1
w 152 151 130 0
w 152 151 -130 1
w 152 -151 130 1
w 152 -151 -130 1
w 153 152 131 1
w 153 152 -131 0
w 153 -152 131 1
w 153 -152 -131 1
w 154 153 132 1
w 154 153 -132 0
w 154 -153 132 0
w 154 -153 -132 0
w 155 133 0
w 155 -133 1
w 156 155 134 1
w 156 155 -134 0
w 156 -155 134 1
w 156 -155 -134 1
w 157 156 135 0
w 157 156 -135 1
w 157 -156 135 0
w 157 -156 -135 1
w 158 157 136 1
w 158 157 -136 0
w 158 -157 136 1
w 158 -157 -136 0
w 159 158 137 0
w 159 158 -137 1
w 159 -158 137 1
w 159 -158 -137 1
w 160 159 138 0.255016
w 160 159 -138 0.587659
w 160 -159 138 0.0706174
w 160 -159 -138 0.2575
w 161 160 139 0
w 161 160 -139 0
w 161 -160 139 0
w 161 -160 -139 1
w 162 161 140 0
w 162 161 -140 1
w 162 -161 140 0
w 162 -161 -140 1
w 163 162 141 0
w 163 162 -141 1
w 163 -162 141 1
w 163 -162 -141 1
w 164 163 142 0
w 164 163 -142 0
w 164 -163 142 0
w 164 -163 -142 1
w 165 164 143 1
w 165 164 -143 1
w 165 -164 143 0
w 165 -164 -143 1
w 166 165 144 0.954304
w 166 165 -144 0.111382
w 166 -165 144 0.49615
w 166 -165 -144 0.0249218
w 167 166 145 0
w 167 166 -145 1
w 167 -166 145 1
w 167 -166 -145 0
w 168 167 146 1
w 168 167 -146 0
w 168 -167 146 1
w 168 -167 -146 0
w 169 168 147 1
w 169 168 -147 0
w 169 -168 147 1
w 169 -168 -147 1
w 170 169 148 1
w 170 169 -148 1
w 170 -169 148 1
w 170 -169 -148 0
w 171 170 149 0.912567
w 171 170 -149 0.891935
w 171 -170 149 0.433672
w 171 -170 -149 0.975538
w 172 171 150 1
w 172 171 -150 0
w 172 -171 150 1
w 172 -171 -150 1
w 173 172 151 0.228566
w 173 172 -151 0.549697
w 173 -172 151 0.0948514
w 173 -172 -151 0.356862
w 174 173 152 0
w 174 173 -152 0
w 174 -173 152 1
w 174 -173 -152 0
w 175 174 153 0.453738
w 175 174 -153 0.222463
w 175 -174 153 0.474055
w 175 -174 -153 0.187725
w 176 175 154 0
w 176 175 -154 1
w 176 -175 154 0
w 176 -175 -154 1
w 177 155 0.378579
w 177 -155 0.182917
w 178 177 156 0.81225
w 178 177 -156 0.158454
w 178 -177 156 0.621798
w 178 -177 -156 0.154413
w 179 178 157 0
w 179 178 -157 0
w 179 -178 157 1
w 179 -178 -157 0
w 180 179 158 1
w 180 179 -158 0
w 180 -179 158 1
w 180 -179 -158 1
w 181 180 159 0.425363
w 181 180 -159 0.402371
w 181 -180 159 0.658183
w 181 -180 -159 0.879102
w 182 181 160 1
w 182 181 -160 0
w 182 -181 160 1
w 182 -181 -160 1
w 183 182 161 1
w 183 182 -161 0
w 183 -182 161 1
w 183 -182 -161 0
w 184 183 162 0
w 184 183 -162 0
w 184 -183 162 1
w 184 -183 -162 1
w 185 184 163 1
w 185 184 -163 0
w 185 -184 163 1
w 185 -184 -163 0
w 186 185 164 1
w 186 185 -164 1
w 186 -185 164 0
w 186 -185 -164 1
w 187 186 165 1
w 187 186 -165 0
w 187 -186 165 0
w 187 -186 -165 1
w 188 187 166 1
w 188 187 -166 0
w 188 -187 166 0
w 188 -187 -166 1
w 189 188 167 0.246305
w 189 188 -167 0.394641
w 189 -188 167 0.831753
w 189 -188 -167 0.910818
w 190 189 168 0
w 190 189 -168 0
w 190 -189 168 1
w 190 -189 -168 1
w 191 190 169 0
w 191 190 -169 1
w 191 -190 169 0
w 191 -190 -169 1
w 192 191 170 0
w 192 191 -170 1
w 192 -191 170 1
w 192 -191 -170 0
w 193 192 171 0
w 193 192 -171 1
w 193 -192 171 0
w 193 -192 -171 0
w 194 193 172 0
w 194 193 -172 0
w 194 -193 172 1
w 194 -193 -172 0
w 195 194 173 1
w 195 194 -173 1
w 195 -194 173 0
w 195 -194 -173 1
w 196 195 174 1
w 196 195 -174 0
w 196 -195 174 1
w 196 -195 -174 0
w 197 196 175 1
w 197 196 -175 1
w 197 -196 175 0
w 197 -196 -175 1
w 198 197 176 0
w 198 197 -176 0
w 198 -197 176 0
w 198 -197 -176 1
w 199 177 0.296968
w 199 -177 0.314133
w 200 199 178 0.469041
w 200 199 -178 0.376337
w 200 -199 178 0.398005
w 200 -199 -178 0.96935
w 201 200 179 0
w 201 200 -179 1
w 201 -200 179 0
w 201 -200 -179 1
w 202 201 180 1
w 202 201 -180 1
w 202 -201 180 1
w 202 -201 -180 0
w 203 202 181 1
w 203 202 -181 0
w 203 -202 181 0
w 203 -202 -181 0
w 204 203 182 0.18903
w 204 203 -182 0.699337
w 204 -203 182 0.632425
w 204 -203 -182 0.271889
w 205 204 183 1
w 205 204 -183 0
w 205 -204 183 1
w 205 -204 -183 1
w 206 205 184 1
w 206 205 -184 1
w 206 -205 184 0
w 206 -205 -184 1
w 207 206 185 1
w 207 206 -185 1
w 207 -206 185 1
w 207 -206 -185 0
w 208 207 186 1
w 208 207 -186 0
w 208 -207 186 0
w 208 -207 -186 0
w 209 208 187 1
w 209 208 -187 1
w 209 -208 187 0
w 209 -208 -187 1
w 210 209 188 0.633368
w 210 209 -188 0.266343
w 210 -209 188 0.300194
w 210 -209 -188 0.0940899
w 211 210 189 0
w 211 210 -189 0
w 211 -210 189 1
w 211 -210 -189 1
w 212 211 190 1
w 212 211 -190 1
w 212 -211 190 0
w 212 -211 -190 1
w 213 212 191 0
w 213 212 -191 1
w 213 -212 191 1
w 213 -212 -191 1
w 214 213 192 1
w 214 213 -192 1
w 214 -213 192 0
w 214 -213 -192 0
w 215 214 193 1
w 215 214 -193 0
w 215 -214 193 1
w 215 -214 -193 1
w 216 215 194 1
w 216 215 -194 1
w 216 -215 194 1
w 216 -215 -194 0
w 217 216 195 0.660436
w 217 216 -195 0.0447865
w 217 -216 195 0.204311
w 217 -216 -195 0.572217
w 218 217 196 1
w 218 217 -196 0
w 218 -217 196 1
w 218 -217 -196 0
w 219 218 197 0.0088478
w 219 218 -197 0.081436
w 219 -218 197 0.286939
w 219 -218 -197 0.662034
w 220 219 198 0
w 220 219 -198 1
w 220 -219 198 1
w 220 -219 -198 0
w 221 199 0
w 221 -199 1
w 222 221 200 0
w 222 221 -200 1
w 222 -221 200 1
w 222 -221 -200 1
w 223 222 201 0.702976
w 223 222 -201 0.170435
w 223 -222 201 0.953597
w 223 -222 -201 0.578298
w 224 223 202 0.998384
w 224 223 -202 0.78261
w 224 -223 202 0.403088
w 224 -223 -202 0.121681
w 225 224 203 0
w 225 224 -203 1
w 225 -224 203 1
w 225 -224 -203 1
w 226 225 204 0.688628
w 226 225 -204 0.190452
w 226 -225 204 0.235848
w 226 -225 -204 0.0460737
w 227 226 205 0
w 227 226 -205 0
w 227 -226 205 1
w 227 -226 -205 0
w 228 227 206 1
w 228 227 -206 1
w 228 -227 206 1
w 228 -227 -206 0
w 229 228 207 0
w 229 228 -207 1
w 229 -228 207 0
w 229 -228 -207 1
w 230 229 208 0
w 230 229 -208 1
w 230 -229 208 0
w 230 -229 -208 0
w 231 230 209 0.489968
w 231 230 -209 0.178989
w 231 -230 209 0.842988
w 231 -230 -209 0.891657
w 232 231 210 0
w 232 231 -210 0
w 232 -231 210 1
w 232 -231 -210 0
w 233 232 211 1
w 233 232 -211 0
w 233 -232 211 1
w 233 -232 -211 0
w 234 233 212 1
w 234 233 -212 0
w 234 -233 212 0
w 234 -233 -212 1
w 235 234 213 0
w 235 234 -213 1
w 235 -234 213 1
w 235 -234 -213 0
w 236 235 214 0.293778
w 236 235 -214 0.637467
w 236 -235 214 0.478983
w 236 -235 -214 0.220729
w 237 236 215 1
w 237 236 -215 1
w 237 -236 215 0
w 237 -236 -215 1
w 238 237 216 1
w 238 237 -216 1
w 238 -237 216 0
w 238 -237 -216 1
w 239 238 217 1
w 239 238 -217 0
w 239 -238 217 0
w 239 -238 -217 1
w 240 239 218 0
w 240 239 -218 0
w 240 -239 218 0
w 240 -239 -218 1
w 241 240 219 1
w 241 240 -219 0
w 241 -240 219 0
w 241 -240 -219 1
w 242 241 220 1
w 242 241 -220 0
w 242 -241 220 0
w 242 -241 -220 1
w 243 221 0.959184
w 243 -221 0.0976519
w 244 243 222 1
w 244 243 -222 1
w 244 -243 222 0
w 244 -243 -222 0
w 245 244 223 0.552772
w 245 244 -223 0.463183
w 245 -244 223 0.691642
w 245 -244 -223 0.848342
w 246 245 224 1
w 246 245 -224 1
w 246 -245 224 0
w 246 -245 -224 0
w 247 246 225 0
w 247 246 -225 1
w 247 -246 225 1
w 247 -246 -225 1
w 248 247 226 1
w 248 247 -226 1
w 248 -247 226 1
w 248 -247 -226 0
w 249 248 227 1
w 249 248 -227 0
w 249 -248 227 1
w 249 -248 -227 1
w 250 249 228 0.291477
w 250 249 -228 0.943421
w 250 -249 228 0.671003
w 250 -249 -228 0.76311
w 251 250 229 1
w 251 250 -229 1
w 251 -250 229 0
w 251 -250 -229 1
w 252 251 230 1
w 252 251 -230 1
w 252 -251 230 1
w 252 -251 -230 0
w 253 252 231 0.137997
w 253 252 -231 0.985703
w 253 -252 231 0.276702
w 253 -252 -231 0.934931
w 254 253 232 0
w 254 253 -232 0
w 254 -253 232 1
w 254 -253 -232 0
w 255 254 233 0.133328
w 255 254 -233 0.956602
w 255 -254 233 0.803765
w 255 -254 -233 0.810929
w 256 255 234 0.0952425
w 256 255 -234 0.75435
w 256 -255 234 0.598603
w 256 -255 -234 0.858352
w 257 256 235 0
w 257 256 -235 0
w 257 -256 235 1
w 257 -256 -235 0
w 258 257 236 1
w 258 257 -236 1
w 258 -257 236 1
w 258 -257 -236 0
w 259 258 237 1
w 259 258 -237 0
w 259 -258 237 0
w 259 -258 -237 1
w 260 259 238 1
w 260 259 -238 1
w 260 -259 238 0
w 260 -259 -238 0
w 261 260 239 0
w 261 260 -239 1
w 261 -260 239 0
w 261 -260 -239 1
w 262 261 240 0.492269
w 262 261 -240 0.635738
w 262 -261 240 0.554076
w 262 -261 -240 0.0908721
w 263 262 241 0
w 263 262 -241 0
w 263 -262 241 1
w 263 -262 -241 0
w 264 263 242 1
w 264 263 -242 1
w 264 -263 242 1
w 264 -263 -242 0
w 265 243 0.245334
w 265 -243 0.480285
w 266 265 244 1
w 266 265 -244 1
w 266 -265 244 0
w 266 -265 -244 0
w 267 266 245 0.462082
w 267 266 -245 0.789884
w 267 -266 245 0.541111
w 267 -266 -245 0.198811
w 268 267 246 0.105782
w 268 267 -246 0.739306
w 268 -267 246 0.578405
w 268 -267 -246 0.598051
w 269 268 247 1
w 269 268 -247 0
w 269 -268 247 0
w 269 -268 -247 0
w 270 269 248 0.537457
w 270 269 -248 0.161364
w 270 -269 248 0.572708
w 270 -269 -248 0.544238
w 271 270 249 1
w 271 270 -249 1
w 271 -270 249 0
w 271 -270 -249 0
w 272 271 250 0.725524
w 272 271 -250 0.294415
w 272 -271 250 0.261794
w 272 -271 -250 0.251515
w 273 272 251 0
w 273 272 -251 1
w 273 -272 251 1
w 273 -272 -251 0
w 274 273 252 0.797395
w 274 273 -252 0.84173
w 274 -273 252 0.651715
w 274 -273 -252 0.3758
w 275 274 253 0
w 275 274 -253 0
w 275 -274 253 1
w 275 -274 -253 1
w 276 275 254 1
w 276 275 -254 0
w 276 -275 254 0
w 276 -275 -254 0
w 277 276 255 0.126089
w 277 276 -255 0.188678
w 277 -276 255 0.350867
w 277 -276 -255 0.651723
w 278 277 256 0.204429
w 278 277 -256 0.377247
w 278 -277 256 0.283647
w 278 -277 -256 0.466223
w 279 278 257 0
w 279 278 -257 0
w 279 -278 257 1
w 279 -278 -257 0
w 280 279 258 1
w 280 279 -258 0
w 280 -279 258 0
w 280 -279 -258 0
w 281 280 259 0
w 281 280 -259 0
w 281 -280 259 0
w 281 -280 -259 1
w 282 281 260 0.460482
w 282 281 -260 0.867973
w 282 -281 260 0.262483
w 282 -281 -260 0.869659
w 283 282 261 1
w 283 282 -261 1
w 283 -282 261 0
w 283 -282 -261 1
w 284 283 262 0
w 284 283 -262 1
w 284 -283 262 1
w 284 -283 -262 0
w 285 284 263 1
w 285 284 -263 1
w 285 -284 263 1
w 285 -284 -263 0
w 286 285 264 0
w 286 285 -264 1
w 286 -285 264 0
w 286 -285 -264 0
w 287 265 0
w 287 -265 1
w 288 287 266 0
w 288 287 -266 1
w 288 -287 266 0
w 288 -287 -266 0
w 289 288 267 1
w 289 288 -267 0
w 289 -288 267 1
w 289 -288 -267 0
w 290 289 268 0
w 290 289 -268 1
w 290 -289 268 1
w 290 -289 -268 1
w 291 290 269 1
w 291 290 -269 1
w 291 -290 269 0
w 291 -290 -269 0
w 292 291 270 0.899702
w 292 291 -270 0.228117
w 292 -291 270 0.312224
w 292 -291 -270 0.150307
w 293 292 271 0
w 293 292 -271 1
w 293 -292 271 0
w 293 -292 -271 1
w 294 293 272 0
w 294 293 -272 1
w 294 -293 272 1
w 294 -293 -272 0
w 295 294 273 1
w 295 294 -273 1
w 295 -294 273 0
w 295 -294 -273 0
w 296 295 274 0
w 296 295 -274 0
w 296 -295 274 1
w 296 -295 -274 1
w 297 296 275 0
w 297 296 -275 1
w 297 -296 275 1
w 297 -296 -275 0
w 298 297 276 1
w 298 297 -276 1
w 298 -297 276 1
w 298 -297 -276 0
w 299 298 277 1
w 299 298 -277 0
w 299 -298 277 1
w 299 -298 -277 1
w 300 299 278 0
w 300 299 -278 1
w 300 -299 278 0
w 300 -299 -278 0
w 301 300 279 0
w 301 300 -279 1
w 301 -300 279 1
w 301 -300 -279 0
w 302 301 280 1
w 302 301 -280 1
w 302 -301 280 0
w 302 -301 -280 1
w 303 302 281 0
w 303 302 -281 1
w 303 -302 281 1
w 303 -302 -281 1
w 304 303 282 1
w 304 303 -282 1
w 304 -303 282 0
w 304 -303 -282 0
w 305 304 283 0
w 305 304 -283 1
w 305 -304 283 1
w 305 -304 -283 1
w 306 305 284 1
w 306 305 -284 1
w 306 -305 284 0
w 306 -305 -284 1
w 307 306 285 0.313563
w 307 306 -285 0.652891
w 307 -306 285 0.654429
w 307 -306 -285 0.613456
w 308 307 286 0
w 308 307 -286 1
w 308 -307 286 1
w 308 -307 -286 1
w 309 287 0
w 309 -287 1
w 310 309 288 0.386332
w 310 309 -288 0.158886
w 310 -309 288 0.109476
w 310 -309 -288 0.56088
w 311 310 289 0
w 311 310 -289 0
w 311 -310 289 1
w 311 -310 -289 0
w 312 311 290 1
w 312 311 -290 1
w 312 -311 290 1
w 312 -311 -290 0
w 313 312 291 1
w 313 312 -291 1
w 313 -312 291 0
w 313 -312 -291 0
w 314 313 292 1
w 314 313 -292 0
w 314 -313 292 0
w 314 -313 -292 0
w 315 314 293 1
w 315 314 -293 0
w 315 -314 293 0
w 315 -314 -293 1
w 316 315 294 1
w 316 315 -294 1
w 316 -315 294 1
w 316 -315 -294 0
w 317 316 295 0.557802
w 317 316 -295 0.430262
w 317 -316 295 0.192606
w 317 -316 -295 0.623815
w 318 317 296 0
w 318 317 -296 0
w 318 -317 296 0
w 318 -317 -296 1
w 319 318 297 0.716344
w 319 318 -297 0.978868
w 319 -318 297 0.353902
w 319 -318 -297 0.291472
w 320 319 298 1
w 320 319 -298 1
w 320 -319 298 0
w 320 -319 -298 1
w 321 320 299 0
w 321 320 -299 1
w 321 -320 299 0
w 321 -320 -299 0
w 322 321 300 0
w 322 321 -300 1
w 322 -321 300 1
w 322 -321 -300 1
w 323 322 301 1
w 323 322 -301 1
w 323 -322 301 0
w 323 -322 -301 1
w 324 323 302 0
w 324 323 -302 1
w 324 -323 302 1
w 324 -323 -302 1
w 325 324 303 0.0723656
w 325 324 -303 0.2947
w 325 -324 303 0.207401
w 325 -324 -303 0.363838
w 326 325 304 1
w 326 325 -304 0
w 326 -325 304 1
w 326 -325 -304 1
w 327 326 305 0.990489
w 327 326 -305 0.338564
w 327 -326 305 0.173627
w 327 -326 -305 0.570199
w 328 327 306 0.801159
w 328 327 -306 0.0563645
w 328 -327 306 0.604487
w 328 -327 -306 0.932605
w 329 328 307 1
w 329 328 -307 1
w 329 -328 307 0
w 329 -328 -307 0
w 330 329 308 0.731293
w 330 329 -308 0.431171
w 330 -329 308 0.93768
w 330 -329 -308 0.0873139
w 331 309 0
w 331 -309 1
w 332 331 310 1
w 332 331 -310 0
w 332 -331 310 1
w 332 -331 -310 0
w 333 332 311 1
w 333 332 -311 0
w 333 -332 311 0
w 333 -332 -311 0
w 334 333 312 0
w 334 333 -312 0
w 334 -333 312 1
w 334 -333 -312 1
w 335 334 313 0
w 335 334 -313 1
w 335 -334 313 1
w 335 -334 -313 0
w 336 335 314 0
w 336 335 -314 1
w 336 -335 314 0
w 336 -335 -314 1
w 337 336 315 1
w 337 336 -315 1
w 337 -336 315 1
w 337 -336 -315 0
w 338 337 316 1
w 338 337 -316 1
w 338 -337 316 1
w 338 -337 -316 0
w 339 338 317 0
w 339 338 -317 0
w 339 -338 317 0
w 339 -338 -317 1
w 340 339 318 0.587981
w 340 339 -318 0.626235
w 340 -339 318 0.381478
w 340 -339 -318 0.18098
w 341 340 319 1
w 341 340 -319 0
w 341 -340 319 1
w 341 -340 -319 0
w 342 341 320 1
w 342 341 -320 1
w 342 -341 320 0
w 342 -341 -320 1
w 343 342 321 0
w 343 342 -321 0
w 343 -342 321 1
w 343 -342 -321 0
w 344 343 322 0
w 344 343 -322 1
w 344 -343 322 0
w 344 -343 -322 1
w 345 344 323 0
w 345 344 -323 1
w 345 -344 323 0
w 345 -344 -323 0
w 346 345 324 0
w 346 345 -324 1
w 346 -345 324 0
w 346 -345 -324 0
w 347 346 325 1
w 347 346 -325 0
w 347 -346 325 0
w 347 -346 -325 0
w 348 347 326 0.808527
w 348 347 -326 0.6699
w 348 -347 326 0.626031
w 348 -347 -326 0.7782
w 349 348 327 0
w 349 348 -327 1
w 349 -348 327 0
w 349 -348 -327 0
w 350 349 328 0
w 350 349 -328 1
w 350 -349 328 0
w 350 -349 -328 1
w 351 350 329 0
w 351 350 -329 1
w 351 -350 329 1
w 351 -350 -329 0
w 352 351 330 1
w 352 351 -330 1
w 352 -351 330 1
w 352 -351 -330 0
w 353 331 0
w 353 -331 1
w 354 353 332 0
w 354 353 -332 0
w 354 -353 332 0
w 354 -353 -332 1
w 355 354 333 0
w 355 354 -333 1
w 355 -354 333 0
w 355 -354 -333 1
w 356 355 334 0
w 356 355 -334 0
w 356 -355 334 1
w 356 -355 -334 0
w 357 356 335 0
w 357 356 -335 0
w 357 -356 335 1
w 357 -356 -335 0
w 358 357 336 1
w 358 357 -336 0
w 358 -357 336 0
w 358 -357 -336 1
w 359 358 337 0
w 359 358 -337 1
w 359 -358 337 1
w 359 -358 -337 0
w 360 359 338 1
w 360 359 -338 0
w 360 -359 338 1
w 360 -359 -338 0
w 361 360 339 1
w 361 360 -339 1
w 361 -360 339 0
w 361 -360 -339 1
w 362 361 340 0
w 362 361 -340 1
w 362 -361 340 1
w 362 -361 -340 0
w 363 362 341 0
w 363 362 -341 0
w 363 -362 341 1
w 363 -362 -341 0
w 364 363 342 0
w 364 363 -342 1
w 364 -363 342 0
w 364 -363 -342 1
w 365 364 343 1
w 365 364 -343 1
w 365 -364 343 1
w 365 -364 -343 0
w 366 365 344 0
w 366 365 -344 1
w 366 -365 344 1
w 366 -365 -344 0
w 367 366 345 0
w 367 366 -345 1
w 367 -366 345 1
w 367 -366 -345 0
w 368 367 346 0.907075
w 368 367 -346 0.199627
w 368 -367 346 0.69541
w 368 -367 -346 0.0698837
w 369 368 347 0.740684
w 369 368 -347 0.771569
w 369 -368 347 0.499163
w 369 -368 -347 0.0653957
w 370 369 348 0
w 370 369 -348 1
w 370 -369 348 1
w 370 -369 -348 0
w 371 370 349 1
w 371 370 -349 0
w 371 -370 349 1
w 371 -370 -349 1
w 372 371 350 0.368619
w 372 371 -350 0.476668
w 372 -371 350 0.249936
w 372 -371 -350 0.33548
w 373 372 351 0
w 373 372 -351 1
w 373 -372 351 1
w 373 -372 -351 1
w 374 373 352 1
w 374 373 -352 1
w 374 -373 352 0
w 374 -373 -352 1
w 375 353 0.734328
w 375 -353 0.813387
w 376 375 354 1
w 376 375 -354 0
w 376 -375 354 0
w 376 -375 -354 0
w 377 376 355 0.621412
w 377 376 -355 0.185374
w 377 -376 355 0.284239
w 377 -376 -355 0.481523
w 378 377 356 0
w 378 377 -356 1
w 378 -377 356 1
w 378 -377 -356 0
w 379 378 357 1
w 379 378 -357 1
w 379 -378 357 0
w 379 -378 -357 1
w 380 379 358 1
w 380 379 -358 0
w 380 -379 358 1
w 380 -379 -358 1
w 381 380 359 0.952014
w 381 380 -359 0.56854
w 381 -380 359 0.780429
w 381 -380 -359 0.686342
w 382 381 360 1
w 382 381 -360 0
w 382 -381 360 0
w 382 -381 -360 1
w 383 382 361 0.226695
w 383 382 -361 0.117221
w 383 -382 361 0.164449
w 383 -382 -361 0.510934
w 384 383 362 1
w 384 383 -362 0
w 384 -383 362 0
w 384 -383 -362 0
w 385 384 363 1
w 385 384 -363 1
w 385 -384 363 0
w 385 -384 -363 0
w 386 385 364 1
w 386 385 -364 1
w 386 -385 364 0
w 386 -385 -364 0
w 387 386 365 0
w 387 386 -365 1
w 387 -386 365 0
w 387 -386 -365 1
w 388 387 366 0.0537524
w 388 387 -366 0.387902
w 388 -387 366 0.69402
w 388 -387 -366 0.314462
w 389 388 367 0.673094
w 389 388 -367 0.541158
w 389 -388 367 0.000931597
w 389 -388 -367 0.837543
w 390 389 368 0
w 390 389 -368 1
w 390 -389 368 0
w 390 -389 -368 0
w 391 390 369 0.269593
w 391 390 -369 0.993617
w 391 -390 369 0.904713
w 391 -390 -369 0.680258
w 392 391 370 0
w 392 391 -370 0
w 392 -391 370 1
w 392 -391 -370 1
w 393 392 371 0.19326
w 393 392 -371 0.540475
w 393 -392 371 0.88058
w 393 -392 -371 0.865086
w 394 393 372 1
w 394 393 -372 1
w 394 -393 372 0
w 394 -393 -372 1
w 395 394 373 0
w 395 394 -373 1
w 395 -394 373 1
w 395 -394 -373 1
w 396 395 374 0.82655
w 396 395 -374 0.368084
w 396 -395 374 0.491702
w 396 -395 -374 0.665247
w 397 375 1
w 397 -375 0
w 398 397 376 0.466716
w 398 397 -376 0.301104
w 398 -397 376 0.615098
w 398 -397 -376 0.94924
w 399 398 377 0
w 399 398 -377 1
w 399 -398 377 1
w 399 -398 -377 0
w 400 399 378 0
w 400 399 -378 1
w 400 -399 378 0
w 400 -399 -378 1
w 401 400 379 1
w 401 400 -379 1
w 401 -400 379 0
w 401 -400 -379 1
w 402 401 380 0
w 402 401 -380 0
w 402 -401 380 1
w 402 -401 -380 0
w 403 402 381 0.581165
w 403 402 -381 0.321881
w 403 -402 381 0.515954
w 403 -402 -381 0.0542645
w 404 403 382 0
w 404 403 -382 1
w 404 -403 382 0
w 404 -403 -382 0
w 405 404 383 0
w 405 404 -383 0
w 405 -404 383 0
w 405 -404 -383 1
w 406 405 384 0
w 406 405 -384 1
w 406 -405 384 0
w 406 -405 -384 0
w 407 406 385 1
w 407 406 -385 1
w 407 -406 385 0
w 407 -406 -385 1
w 408 407 386 0
w 408 407 -386 1
w 408 -407 386 0
w 408 -407 -386 0
w 409 408 387 0
w 409 408 -387 1
w 409 -408 387 1
w 409 -408 -387 1
w 410 409 388 1
w 410 409 -388 1
w 410 -409 388 1
w 410 -409 -388 0
w 411 410 389 1
w 411 410 -389 0
w 411 -410 389 0
w 411 -410 -389 0
w 412 411 390 0.471955
w 412 411 -390 0.801956
w 412 -411 390 0.10155
w 412 -411 -390 0.311426
w 413 412 391 0
w 413 412 -391 1
w 413 -412 391 1
w 413 -412 -391 1
w 414 413 392 0
w 414 413 -392 1
w 414 -413 392 1
w 414 -413 -392 0
w 415 414 393 1
w 415 414 -393 1
w 415 -414 393 1
w 415 -414 -393 0
w 416 415 394 1
w 416 415 -394 1
w 416 -415 394 0
w 416 -415 -394 0
w 417 416 395 0.34763
w 417 416 -395 0.195404
w 417 -416 395 0.190629
w 417 -416 -395 0.0776746
w 418 417 396 1
w 418 417 -396 1
w 418 -417 396 0
w 418 -417 -396 0
w 419 397 0.3947
w 419 -397 0.0953641
w 420 419 398 1
w 420 419 -398 1
w 420 -419 398 0
w 420 -419 -398 1
w 421 420 399 0.703806
w 421 420 -399 0.742098
w 421 -420 399 0.368018
w 421 -420 -399 0.0868298
w 422 421 400 0.899742
w 422 421 -400 0.966241
w 422 -421 400 0.265958
w 422 -421 -400 0.169459
w 423 422 401 0.39298
w 423 422 -401 0.196545
w 423 -422 401 0.632495
w 423 -422 -401 0.740611
w 424 423 402 0
w 424 423 -402 1
w 424 -423 402 0
w 424 -423 -402 1
w 425 424 403 1
w 425 424 -403 1
w 425 -424 403 0
w 425 -424 -403 0
w 426 425 404 0.257321
w 426 425 -404 0.0440326
w 426 -425 404 0.950354
w 426 -425 -404 0.558536
w 427 426 405 0.806372
w 427 426 -405 0.262343
w 427 -426 405 0.556145
w 427 -426 -405 0.17439
w 428 427 406 1
w 428 427 -406 0
w 428 -427 406 1
w 428 -427 -406 0
w 429 428 407 0
w 429 428 -407 1
w 429 -428 407 0
w 429 -428 -407 0
w 430 429 408 0.832086
w 430 429 -408 0.563864
w 430 -429 408 0.663305
w 430 -429 -408 0.755794
w 431 430 409 0
w 431 430 -409 1
w 431 -430 409 0
w 431 -430 -409 0
w 432 431 410 1
w 432 431 -410 1
w 432 -431 410 1
w 432 -431 -410 0
w 433 432 411 0
w 433 432 -411 0
w 433 -432 411 1
w 433 -432 -411 0
w 434 433 412 1
w 434 433 -412 1
w 434 -433 412 0
w 434 -433 -412 1
w 435 434 413 0
w 435 434 -413 1
w 435 -434 413 1
w 435 -434 -413 0
w 436 435 414 1
w 436 435 -414 0
w 436 -435 414 1
w 436 -435 -414 1
w 437 436 415 0
w 437 436 -415 1
w 437 -436 415 1
w 437 -436 -415 0
w 438 437 416 0
w 438 437 -416 1
w 438 -437 416 0
w 438 -437 -416 0
w 439 438 417 0
w 439 438 -417 1
w 439 -438 417 0
w 439 -438 -417 1
w 440 439 418 0.845654
w 440 439 -418 0.79904
w 440 -439 418 0.763089
w 440 -439 -418 0.0821193
w 441 419 1
w 441 -419 0
w 442 441 420 0
w 442 441 -420 0
w 442 -441 420 1
w 442 -441 -420 1
w 443 442 421 0
w 443 442 -421 0
w 443 -442 421 0
w 443 -442 -421 1
w 444 443 422 0.479107
w 444 443 -422 0.0973086
w 444 -443 422 0.724745
w 444 -443 -422 0.137224
w 445 444 423 0.672169
w 445 444 -423 0.871388
w 445 -444 423 0.0559899
w 445 -444 -423 0.429161
w 446 445 424 0.376608
w 446 445 -424 0.170111
w 446 -445 424 0.704056
w 446 -445 -424 0.222262
w 447 446 425 0.467145
w 447 446 -425 0.304382
w 447 -446 425 0.0698719
w 447 -446 -425 0.341453
w 448 447 426 0
w 448 447 -426 0
w 448 -447 426 1
w 448 -447 -426 1
w 449 448 427 0
w 449 448 -427 0
w 449 -448 427 1
w 449 -448 -427 0
w 450 449 428 0
w 450 449 -428 1
w 450 -449 428 0
w 450 -449 -428 0
w 451 450 429 1
w 451 450 -429 0
w 451 -450 429 0
w 451 -450 -429 0
w 452 451 430 1
w 452 451 -430 0
w 452 -451 430 0
w 452 -451 -430 0
w 453 452 431 0.735706
w 453 452 -431 0.0355297
w 453 -452 431 0.914667
w 453 -452 -431 0.0771595
w 454 453 432 0.827077
w 454 453 -432 0.14488
w 454 -453 432 0.099164
w 454 -453 -432 0.155927
w 455 454 433 1
w 455 454 -433 0
w 455 -454 433 0
w 455 -454 -433 0
w 456 455 434 0
w 456 455 -434 1
w 456 -455 434 0
w 456 -455 -434 1
w 457 456 435 1
w 457 456 -435 1
w 457 -456 435 0
w 457 -456 -435 1
w 458 457 436 0.572546
w 458 457 -436 0.373759
w 458 -457 436 0.794835
w 458 -457 -436 0.841107
w 459 458 437 1
w 459 458 -437 1
w 459 -458 437 1
w 459 -458 -437 0
w 460 459 438 0.381373
w 460 459 -438 0.798853
w 460 -459 438 0.00250521
w 460 -459 -438 0.537301
w 461 460 439 0
w 461 460 -439 1
w 461 -460 439 0
w 461 -460 -439 0
w 462 461 440 0
w 462 461 -440 0
w 462 -461 440 1
w 462 -461 -440 1
w 463 441 0.552076
w 463 -441 0.0912073
w 464 463 442 0.416949
w 464 463 -442 0.010399
w 464 -463 442 0.528731
w 464 -463 -442 0.790708
w 465 464 443 0.369838
w 465 464 -443 0.895616
w 465 -464 443 0.444865
w 465 -464 -443 0.946652
w 466 465 444 1
w 466 465 -444 0
w 466 -465 444 0
w 466 -465 -444 1
w 467 466 445 1
w 467 466 -445 0
w 467 -466 445 1
w 467 -466 -445 0
w 468 467 446 1
w 468 467 -446 0
w 468 -467 446 1
w 468 -467 -446 1
w 469 468 447 1
w 469 468 -447 1
w 469 -468 447 0
w 469 -468 -447 1
w 470 469 448 1
w 470 469 -448 1
w 470 -469 448 1
w 470 -469 -448 0
w 471 470 449 0
w 471 470 -449 1
w 471 -470 449 0
w 471 -470 -449 1
w 472 471 450 1
w 472 471 -450 0
w 472 -471 450 0
w 472 -471 -450 0
w 473 472 451 1
w 473 472 -451 1
w 473 -472 451 0
w 473 -472 -451 0
w 474 473 452 0
w 474 473 -452 1
w 474 -473 452 0
w 474 -473 -452 0
w 475 474 453 0.160529
w 475 474 -453 0.831224
w 475 -474 453 0.862257
w 475 -474 -453 0.429614
w 476 475 454 0
w 476 475 -454 0
w 476 -475 454 0
w 476 -475 -454 1
w 477 476 455 1
w 477 476 -455 1
w 477 -476 455 1
w 477 -476 -455 0
w 478 477 456 1
w 478 477 -456 1
w 478 -477 456 0
w 478 -477 -456 1
w 479 478 457 1
w 479 478 -457 0
w 479 -478 457 0
w 479 -478 -457 0
w 480 479 458 0
w 480 479 -458 0
w 480 -479 458 0
w 480 -479 -458 1
w 481 480 459 1
w 481 480 -459 1
w 481 -480 459 1
w 481 -480 -459 0
w 482 481 460 1
w 482 481 -460 0
w 482 -481 460 0
w 482 -481 -460 1
w 483 482 461 0
w 483 482 -461 1
w 483 -482 461 0
w 483 -482 -461 1
w 484 483 462 1
w 484 483 -462 0
w 484 -483 462 1
w 484 -483 -462 0